Route #1: 25 53 6 24 41 45 42 47
Route #2: 48 36 32 49 33 13 3
Route #3: 11 55 20 31 30 54 34 2 43 51 44 17
Route #4: 10 23 50 22 38 9 12 5 40 28
Route #5: 19 18 14 8 46 7 15 29
Route #6: 37 4 39 26 21 1
Route #7: 52 16 35 27
Cost 751